NAME 
ROWS
 N  OBJ
 L  R0      
 L  R1      
 E  R2      
 E  R3      
 E  R4      
 E  R5      
 E  R6      
 E  R7      
 E  R8      
 E  R9      
 E  R10     
 E  R11     
 E  R12     
 E  R13     
 E  R14     
 E  R15     
 E  R16     
 E  R17     
 E  R18     
 E  R19     
 E  R20     
 E  R21     
 E  R22     
 E  R23     
 E  R24     
 E  R25     
 E  R26     
COLUMNS
    MARKER    'MARKER'                 'INTORG'
    I0(10)    OBJ       75
    I0(10)    R0        147
    I0(10)    R1        99
    I0(10)    R3        2
    I0(10)    R4        3
    I0(10)    R7        19
    I0(10)    R9        16
    I0(10)    R10       19
    I0(10)    R12       16
    I0(10)    R13       10
    I0(10)    R26       1
    I1(9)     OBJ       131
    I1(9)     R0        -190
    I1(9)     R1        -80
    I1(9)     R2        7
    I1(9)     R3        1
    I1(9)     R6        -1
    I1(9)     R8        12
    I1(9)     R12       6
    I1(9)     R13       8
    I1(9)     R26       1
    I2(9)     OBJ       -7
    I2(9)     R0        -8
    I2(9)     R1        -20
    I2(9)     R4        -1
    I2(9)     R5        5
    I2(9)     R6        15
    I2(9)     R7        4
    I2(9)     R9        11
    I2(9)     R10       15
    I2(9)     R26       1
    I3(11)    OBJ       181
    I3(11)    R0        -56
    I3(11)    R1        -177
    I3(11)    R2        18
    I3(11)    R3        14
    I3(11)    R5        18
    I3(11)    R6        11
    I3(11)    R7        7
    I3(11)    R9        12
    I3(11)    R10       17
    I3(11)    R11       8
    I3(11)    R26       1
    I4(11)    OBJ       166
    I4(11)    R0        -70
    I4(11)    R1        196
    I4(11)    R3        13
    I4(11)    R6        14
    I4(11)    R7        16
    I4(11)    R8        18
    I4(11)    R9        14
    I4(11)    R10       17
    I4(11)    R11       10
    I4(11)    R13       12
    I4(11)    R26       1
    I5(9)     OBJ       -31
    I5(9)     R0        140
    I5(9)     R1        -85
    I5(9)     R5        8
    I5(9)     R6        19
    I5(9)     R7        14
    I5(9)     R9        3
    I5(9)     R10       8
    I5(9)     R12       12
    I5(9)     R26       1
    I6(7)     OBJ       199
    I6(7)     R0        65
    I6(7)     R1        -38
    I6(7)     R2        8
    I6(7)     R3        18
    I6(7)     R8        7
    I6(7)     R13       12
    I6(7)     R26       1
    I7(12)    OBJ       -53
    I7(12)    R0        100
    I7(12)    R1        -16
    I7(12)    R2        7
    I7(12)    R3        11
    I7(12)    R4        6
    I7(12)    R6        7
    I7(12)    R7        19
    I7(12)    R9        12
    I7(12)    R10       5
    I7(12)    R11       12
    I7(12)    R12       13
    I7(12)    R26       1
    I8(12)    OBJ       -48
    I8(12)    R0        -65
    I8(12)    R1        -114
    I8(12)    R3        10
    I8(12)    R5        1
    I8(12)    R6        15
    I8(12)    R7        8
    I8(12)    R8        17
    I8(12)    R9        4
    I8(12)    R10       18
    I8(12)    R12       10
    I8(12)    R13       -1
    I8(12)    R26       1
    I9(10)    OBJ       137
    I9(10)    R0        -9
    I9(10)    R1        -85
    I9(10)    R4        4
    I9(10)    R6        3
    I9(10)    R7        14
    I9(10)    R9        1
    I9(10)    R10       5
    I9(10)    R11       17
    I9(10)    R12       -1
    I9(10)    R26       1
    I10(10)   OBJ       -77
    I10(10)   R0        164
    I10(10)   R1        67
    I10(10)   R2        7
    I10(10)   R3        5
    I10(10)   R5        18
    I10(10)   R7        19
    I10(10)   R9        19
    I10(10)   R11       17
    I10(10)   R13       14
    I10(10)   R26       1
    I11(7)    OBJ       -65
    I11(7)    R0        -194
    I11(7)    R1        134
    I11(7)    R5        19
    I11(7)    R7        9
    I11(7)    R8        12
    I11(7)    R12       14
    I11(7)    R26       1
    MARKER    'MARKER'                 'INTEND'
    C12(17)   OBJ       7
    C12(17)   R0        -3
    C12(17)   R1        1
    C12(17)   R2        3
    C12(17)   R3        12
    C12(17)   R5        15
    C12(17)   R6        15
    C12(17)   R7        -1
    C12(17)   R8        13
    C12(17)   R9        4
    C12(17)   R11       -1
    C12(17)   R12       18
    C12(17)   R13       2
    C12(17)   R15       6
    C12(17)   R16       6
    C12(17)   R20       6
    C12(17)   R21       14
    C12(17)   R24       4
    C13(10)   OBJ       -3
    C13(10)   R0        7
    C13(10)   R1        -7
    C13(10)   R2        14
    C13(10)   R5        15
    C13(10)   R8        12
    C13(10)   R11       13
    C13(10)   R14       -1
    C13(10)   R15       16
    C13(10)   R21       16
    C13(10)   R25       16
    C14(10)   OBJ       4
    C14(10)   R0        5
    C14(10)   R1        -10
    C14(10)   R5        14
    C14(10)   R10       -1
    C14(10)   R14       5
    C14(10)   R16       9
    C14(10)   R18       10
    C14(10)   R21       4
    C14(10)   R24       4
    C14(10)   R25       7
    C15(12)   OBJ       5
    C15(12)   R0        -2
    C15(12)   R1        -9
    C15(12)   R4        12
    C15(12)   R8        11
    C15(12)   R10       3
    C15(12)   R11       12
    C15(12)   R12       2
    C15(12)   R14       14
    C15(12)   R18       15
    C15(12)   R20       6
    C15(12)   R21       6
    C15(12)   R22       18
    C16(17)   OBJ       8
    C16(17)   R0        -6
    C16(17)   R1        9
    C16(17)   R2        4
    C16(17)   R4        1
    C16(17)   R5        18
    C16(17)   R6        9
    C16(17)   R7        2
    C16(17)   R9        3
    C16(17)   R11       9
    C16(17)   R15       12
    C16(17)   R16       13
    C16(17)   R17       11
    C16(17)   R18       14
    C16(17)   R19       4
    C16(17)   R20       -1
    C16(17)   R21       6
    C16(17)   R24       12
    C17(14)   OBJ       8
    C17(14)   R0        6
    C17(14)   R1        2
    C17(14)   R6        3
    C17(14)   R7        2
    C17(14)   R8        8
    C17(14)   R9        15
    C17(14)   R10       19
    C17(14)   R11       13
    C17(14)   R13       6
    C17(14)   R16       9
    C17(14)   R20       10
    C17(14)   R21       8
    C17(14)   R23       8
    C17(14)   R24       12
    C18(14)   OBJ       -5
    C18(14)   R0        6
    C18(14)   R1        -1
    C18(14)   R4        6
    C18(14)   R7        18
    C18(14)   R11       7
    C18(14)   R13       17
    C18(14)   R14       8
    C18(14)   R19       17
    C18(14)   R20       2
    C18(14)   R21       11
    C18(14)   R22       7
    C18(14)   R23       11
    C18(14)   R24       9
    C18(14)   R25       9
    C19(14)   OBJ       -9
    C19(14)   R0        -5
    C19(14)   R1        1
    C19(14)   R2        18
    C19(14)   R3        12
    C19(14)   R5        3
    C19(14)   R6        9
    C19(14)   R8        15
    C19(14)   R11       -1
    C19(14)   R12       16
    C19(14)   R13       8
    C19(14)   R17       18
    C19(14)   R21       19
    C19(14)   R22       11
    C19(14)   R24       16
    C20(18)   OBJ       6
    C20(18)   R0        -1
    C20(18)   R1        1
    C20(18)   R2        17
    C20(18)   R3        10
    C20(18)   R4        1
    C20(18)   R6        6
    C20(18)   R7        17
    C20(18)   R9        6
    C20(18)   R11       2
    C20(18)   R12       9
    C20(18)   R14       17
    C20(18)   R16       1
    C20(18)   R17       19
    C20(18)   R19       7
    C20(18)   R20       19
    C20(18)   R23       4
    C20(18)   R24       2
    C20(18)   R25       14
    C21(17)   OBJ       9
    C21(17)   R0        -8
    C21(17)   R1        3
    C21(17)   R5        13
    C21(17)   R7        6
    C21(17)   R9        16
    C21(17)   R11       18
    C21(17)   R12       18
    C21(17)   R13       13
    C21(17)   R14       13
    C21(17)   R17       12
    C21(17)   R18       8
    C21(17)   R19       7
    C21(17)   R20       13
    C21(17)   R21       2
    C21(17)   R22       9
    C21(17)   R23       -1
    C21(17)   R24       3
    C22(16)   OBJ       9
    C22(16)   R0        8
    C22(16)   R1        2
    C22(16)   R2        15
    C22(16)   R3        -1
    C22(16)   R4        10
    C22(16)   R5        2
    C22(16)   R8        15
    C22(16)   R11       5
    C22(16)   R12       15
    C22(16)   R13       6
    C22(16)   R16       3
    C22(16)   R17       4
    C22(16)   R18       -1
    C22(16)   R19       10
    C22(16)   R22       9
    C22(16)   R24       15
    C23(12)   OBJ       9
    C23(12)   R0        3
    C23(12)   R1        -4
    C23(12)   R2        19
    C23(12)   R3        1
    C23(12)   R5        2
    C23(12)   R6        7
    C23(12)   R12       17
    C23(12)   R14       16
    C23(12)   R17       1
    C23(12)   R18       3
    C23(12)   R23       9
    C23(12)   R24       14
    C24(12)   OBJ       -6
    C24(12)   R0        -5
    C24(12)   R1        -1
    C24(12)   R3        10
    C24(12)   R4        13
    C24(12)   R6        12
    C24(12)   R8        13
    C24(12)   R11       12
    C24(12)   R14       4
    C24(12)   R15       3
    C24(12)   R18       17
    C24(12)   R22       2
    C24(12)   R24       4
    C25(1)    R2        1
    C26(1)    R3        1
    C27(1)    R4        1
    C28(1)    R5        1
    C29(1)    R6        1
    C30(1)    R7        1
    C31(1)    R8        1
    C32(1)    R9        1
    C33(1)    R10       1
    C34(1)    R11       1
    C35(1)    R12       1
    C36(1)    R13       1
    C37(1)    R14       1
    C38(1)    R15       1
    C39(1)    R16       1
    C40(1)    R17       1
    C41(1)    R18       1
    C42(1)    R19       1
    C43(1)    R20       1
    C44(1)    R21       1
    C45(1)    R22       1
    C46(1)    R23       1
    C47(1)    R24       1
    C48(1)    R25       1
    C49(1)    R26       1
RHS
    RHS1      R0        -3.0000000000000266e+00
    RHS1      R1        7.2644444444444446e+01
    RHS1      R2        95
    RHS1      R3        55
    RHS1      R4        85
    RHS1      R5        99
    RHS1      R6        76
    RHS1      R7        59
    RHS1      R8        57
    RHS1      R9        50
    RHS1      R10       80
    RHS1      R11       54
    RHS1      R12       82
    RHS1      R13       68
    RHS1      R14       87
    RHS1      R15       81
    RHS1      R16       76
    RHS1      R17       80
    RHS1      R18       56
    RHS1      R19       97
    RHS1      R20       53
    RHS1      R21       71
    RHS1      R22       66
    RHS1      R23       64
    RHS1      R24       80
    RHS1      R25       59
    RHS1      R26       4
BOUNDS
 UP BND1      I0(10)    1
 UP BND1      I1(9)     1
 UP BND1      I2(9)     1
 UP BND1      I3(11)    1
 UP BND1      I4(11)    1
 UP BND1      I5(9)     1
 UP BND1      I6(7)     1
 UP BND1      I7(12)    1
 UP BND1      I8(12)    1
 UP BND1      I9(10)    1
 UP BND1      I10(10)   1
 UP BND1      I11(7)    1
ENDATA
